gil250_1
0 82 163 64 57 131 225 38 224 125 170 2 114 153 150 183 36 220 65 217 58 121 189 248 9 230 26 13 214 10 113 42 103 168 175 40 24 245 201 59 171 243 3 190 112 104 141 25 37 222 196 174 187 63 156 95 28 239 184 192 86 88 149 247 0 157 249 62 177 69 237 146 102 162 181 169 15 136 226 67 97 227 109 20 158 110 60 92 98 240 48 117 178 132 85 6 16 219 39 43 223 242 56 66 197 194 80 17 55 47 78 32 147 134 159 127 51 29 41 210 105 111 22 180 216 179 45 212 107 128 143 120 236 23 161 46 0 198 73 191 49 12 129 61 221 205 202 139 232 154 0